6223990.0
1719
0 2 4 5 7 8 11 12 13 15 18 20 21 22 24 26 27 31 32 33 34 36 37 38 39 41 42 43 44 45 46 47 50 51 52 53 54 55 59 60 62 63 66 67 69 70 71 72 73 78 79 80 82 84 87 89 90 91 92 93 97 108 109 110 111 116 117 121 123 124 125 135 136 138 139 140 141 144 145 146 147 148 149 150 152 153 155 157 160 161 162 163 164 165 167 172 174 176 178 179 180 181 182 183 185 187 188 189 190 191 193 194 197 198 